\ENCODING=ISO-8859-1
\Problem name: ilog.cplex

Minimize
 obj: 30.61 x0 + 37.02 x1 + 46.47 x2 + 47.54 x3 + 43.35 x4 + 34.04 x5
      + 45.57 x6 + 35.86 x7 + 30.49 x8 + 39.68 x9 + 48.9 x10 + 47.24 x11
      + 32.64 x12 + 42.79 x13 + 38.84 x14 + 45.2 x15 + 38.56 x16 + 34.7 x17
      + 34.76 x18 + 47.97 x19 + 188.73 x20 + 21.28 x21 + 7.12 x22 + 1.24 x23
      + 2.13 x24 + 7.07 x25 + 12.35 x26 + 16.01 x27 + 2.44 x28 + 5.38 x29
      + 11.79 x30 + 3.29 x31 + 3.61 x32 + 159.79 x33 + 32.2 x34 + 10.45 x35
      + 4.23 x36 + 3.79 x37 + 17.66 x38 + 2.36 x39 + 3.89 x40 + 3.96 x41
      + 7.06 x42 + 10.23 x43 + 8.86 x44 + 168.42 x45 + 28.84 x46 + 19.51 x47
      + 0.9 x48 + 15.17 x49 + 6.11 x50 + 11.45 x51 + 6.4 x52 + 1.64 x53
      + 2.12 x54 + 2.67 x55 + 125.03 x56 + 37.49 x57 + 1.08 x58 + 13.64 x59
      + 10.29 x60 + 15.12 x61 + 4.6 x62 + 1.19 x63 + 16.53 x64 + 16.87 x65
      + 10.95 x66 + 127.84 x67 + 26.66 x68 + 8.02 x69 + 5.88 x70 + 19.07 x71
      + 6.82 x72 + 14.79 x73 + 0.72 x74 + 2.97 x75 + 9.05 x76 + 19.61 x77
      + 126.9 x78 + 28.05 x79 + 13.16 x80 + 0.01 x81 + 0.58 x82 + 1.05 x83
      + 5.04 x84 + 15.31 x85 + 17.62 x86 + 12.66 x87 + 14.76 x88 + 168.67 x89
      + 35.69 x90 + 17.96 x91 + 14.43 x92 + 6.64 x93 + 18.33 x94 + 1.82 x95
      + 7.74 x96 + 13.83 x97 + 4.99 x98 + 174.6 x99 + 35.12 x100 + 3.74 x101
      + 3.38 x102 + 11.02 x103 + 17.78 x104 + 17.83 x105 + 12.64 x106
      + 16.01 x107 + 12.02 x108 + 11.95 x109 + 5.29 x110 + 144.7 x111
      + 24.47 x112 + 6.76 x113 + 5.48 x114 + 15.55 x115 + 14.82 x116
      + 17.03 x117 + 5.05 x118 + 14.88 x119 + 13.58 x120 + 6.01 x121
      + 132.31 x122 + 31.84 x123 + 14.53 x124 + 18.22 x125 + 0.41 x126
      + 9.25 x127 + 8.71 x128 + 18.3 x129 + 13.01 x130 + 3.45 x131 + 17.62 x132
      + 177.63 x133 + 38.23 x134 + 15.2 x135 + 16.29 x136 + 7.32 x137
      + 5.27 x138 + 7.57 x139 + 1.71 x140 + 1.53 x141 + 11.63 x142 + 3.97 x143
      + 14.39 x144 + 6.54 x145 + 144.56 x146 + 24.09 x147 + 10.78 x148
      + 8.84 x149 + 0.22 x150 + 12.56 x151 + 4.1 x152 + 17.09 x153 + 19.52 x154
      + 17.68 x155 + 6.15 x156 + 1.02 x157 + 12.54 x158 + 148.92 x159
      + 31.2 x160 + 19.59 x161 + 4.11 x162 + 14.21 x163 + 8.5 x164 + 18.81 x165
      + 1.73 x166 + 2.48 x167 + 12.02 x168 + 2.6 x169 + 16.71 x170
      + 102.86 x171 + 36.91 x172 + 7.19 x173 + 1.39 x174 + 9.11 x175
      + 5.35 x176 + 0.51 x177 + 7.77 x178 + 1.34 x179 + 5.75 x180 + 198.75 x181
      + 22.39 x182 + 13.93 x183 + 4.31 x184 + 0.64 x185 + 16.17 x186
      + 12.26 x187 + 13.82 x188 + 8.48 x189 + 19.99 x190 + 10.85 x191
      + 2.84 x192 + 167.77 x193 + 37.44 x194 + 4.57 x195 + 16.57 x196
      + 0.4 x197 + 4.29 x198 + 19.57 x199 + 2.27 x200 + 1.66 x201 + 1.78 x202
      + 15.55 x203 + 19.22 x204 + 125.56 x205 + 31.81 x206 + 17.6 x207
      + 0.06 x208 + 15.14 x209 + 9.17 x210 + 17.8 x211 + 3.78 x212 + 0.83 x213
      + 15.7 x214 + 18.1 x215 + 8.54 x216 + 173.51 x217 + 24.1 x218 + 2.8 x219
      + 3.73 x220 + 10.17 x221 + 12.43 x222 + 6.66 x223 + 4.72 x224 + 6.76 x225
      + 10.71 x226 + 13.3 x227 + 199.64 x228 + 38.7 x229 + 12.14 x230
      + 15.11 x231 + 1.43 x232 + 2.6 x233 + 8.02 x234 + 11.4 x235 + 14.48 x236
      + 2.52 x237 + 9.82 x238 + 5.16 x239 + 163.22 x240 + 26.29 x241
      + 4.09 x242 + 6.02 x243 + 17.79 x244 + 16.73 x245 + 17.34 x246
      + 17.4 x247 + 15.31 x248 + 17.7 x249 + 10.54 x250 + 7.69 x251
      + 16.83 x252 + 0.07 y0 + 1.91 y1 + 4.69 y2 + 5.85 y3 + 5.91 y4 + 7.72 y5
      + 10.49 y6 + 10.7 y7 + 12.13 y8 + 19.4 y9 + 19.86 y10 + 39.72 y11
      + 171.08 y12 + 2.59 y13 + 3.67 y14 + 3.78 y15 + 7.12 y16 + 8.12 y17
      + 8.59 y18 + 10.11 y19 + 10.14 y20 + 12.15 y21 + 17.75 y22 + 18.95 y23
      + 22.67 y24 + 120.24 y25 + 0.19 y26 + 5.28 y27 + 6.95 y28 + 11.17 y29
      + 11.18 y30 + 13.52 y31 + 17.92 y32 + 19.47 y33 + 19.92 y34 + 31.87 y35
      + 163.22 y36 + 0.2 y37 + 4.3 y38 + 5.59 y39 + 6.82 y40 + 7.1 y41
      + 7.57 y42 + 8.43 y43 + 12.57 y44 + 13.46 y45 + 15.25 y46 + 18.73 y47
      + 24.59 y48 + 174.98 y49 + 2.85 y50 + 4.7 y51 + 6.55 y52 + 10.8 y53
      + 12.95 y54 + 15.46 y55 + 17.68 y56 + 19.17 y57 + 19.41 y58 + 35.44 y59
      + 111.92 y60 + 0.15 y61 + 1.05 y62 + 3.48 y63 + 5.86 y64 + 5.97 y65
      + 10.38 y66 + 11.5 y67 + 12.16 y68 + 12.39 y69 + 14.67 y70 + 15.76 y71
      + 30.48 y72 + 180.98 y73 + 2.64 y74 + 6 y75 + 6.08 y76 + 10.12 y77
      + 15.08 y78 + 17.12 y79 + 17.53 y80 + 17.8 y81 + 19.62 y82 + 31.89 y83
      + 148.28 y84 + 2.17 y85 + 12.09 y86 + 13.68 y87 + 14.97 y88 + 15.95 y89
      + 16.31 y90 + 17.16 y91 + 19.48 y92 + 20.17 y93 + 162.66 y94 + 0.92 y95
      + 4.39 y96 + 6.67 y97 + 7.88 y98 + 10.72 y99 + 13.31 y100 + 17.14 y101
      + 17.23 y102 + 17.93 y103 + 18.29 y104 + 36.82 y105 + 100.62 y106
      + 0.48 y107 + 4.9 y108 + 5.59 y109 + 7.23 y110 + 7.84 y111 + 14.7 y112
      + 17.01 y113 + 19.14 y114 + 19.17 y115 + 19.22 y116 + 34.24 y117
      + 194.44 y118 + 0.39 y119 + 3.11 y120 + 5.45 y121 + 11.46 y122
      + 14.51 y123 + 15.81 y124 + 17.58 y125 + 19.3 y126 + 19.55 y127
      + 28.91 y128 + 183.49 y129 + 1.86 y130 + 4.54 y131 + 7.98 y132
      + 9.72 y133 + 11.25 y134 + 11.55 y135 + 13.38 y136 + 13.81 y137
      + 14.58 y138 + 15.18 y139 + 16.52 y140 + 39.95 y141 + 141.64 y142
      + 1.25 y143 + 3.61 y144 + 6.5 y145 + 7.2 y146 + 9.32 y147 + 13.76 y148
      + 16.95 y149 + 18.02 y150 + 19.08 y151 + 19.46 y152 + 24.48 y153
      + 190.45 y154 + 0.16 y155 + 1.22 y156 + 2.81 y157 + 3.36 y158 + 5.63 y159
      + 6.43 y160 + 7.05 y161 + 10.29 y162 + 14.37 y163 + 17.3 y164 + 19 y165
      + 21.74 y166 + 196.9 y167 + 1.59 y168 + 1.73 y169 + 2.17 y170 + 2.7 y171
      + 2.82 y172 + 8.25 y173 + 9.24 y174 + 12.75 y175 + 15.79 y176
      + 18.93 y177 + 36.43 y178 + 191.04 y179 + 2.42 y180 + 3.89 y181
      + 4.22 y182 + 5.34 y183 + 9.13 y184 + 12.13 y185 + 13.42 y186
      + 13.87 y187 + 19.52 y188 + 39.7 y189 + 177.23 y190 + 1.72 y191
      + 2.18 y192 + 4.25 y193 + 4.71 y194 + 5.49 y195 + 6.82 y196 + 10.32 y197
      + 10.84 y198 + 12.89 y199 + 13.37 y200 + 18.61 y201 + 27.31 y202
      + 128.93 y203 + 0.19 y204 + 4.61 y205 + 7.39 y206 + 8.19 y207
      + 11.04 y208 + 11.88 y209 + 14.06 y210 + 14.94 y211 + 29.19 y212
      + 121.29 y213 + 1.79 y214 + 8.77 y215 + 9.78 y216 + 10.85 y217
      + 11.33 y218 + 13 y219 + 16.89 y220 + 18.03 y221 + 19.08 y222
      + 24.61 y223 + 181.64 y224 + 1.13 y225 + 5.86 y226 + 8.62 y227
      + 8.91 y228 + 9.32 y229 + 10.49 y230 + 12.07 y231 + 12.34 y232
      + 12.64 y233 + 14.46 y234 + 15.81 y235 + 37.11 y236 + 107.02 y237
Subject To
 N43:      x20 + x21 + x22 + x23 + x24 + x25 + x26 + x27 + x28 + x29 + x30
           + x31 + x32  = 26.0124349435023
 N44:      x33 + x34 + x35 + x36 + x37 + x38 + x39 + x40 + x41 + x42 + x43
           + x44  = 23.4501865533166
 N45:      x45 + x46 + x47 + x48 + x49 + x50 + x51 + x52 + x53 + x54 + x55
            = 15
 N46:      x56 + x57 + x58 + x59 + x60 + x61 + x62 + x63 + x64 + x65 + x66
            = 13.0078792420082
 N47:      x67 + x68 + x69 + x70 + x71 + x72 + x73 + x74 + x75 + x76 + x77
            = 14
 N48:      x78 + x79 + x80 + x81 + x82 + x83 + x84 + x85 + x86 + x87 + x88
            = 22
 N49:      x89 + x90 + x91 + x92 + x93 + x94 + x95 + x96 + x97 + x98
            = 19.4983650186266
 N50:      x99 + x100 + x101 + x102 + x103 + x104 + x105 + x106 + x107 + x108
           + x109 + x110  = 18
 N51:      x111 + x112 + x113 + x114 + x115 + x116 + x117 + x118 + x119 + x120
           + x121  = 18.9922322716846
 N52:      x122 + x123 + x124 + x125 + x126 + x127 + x128 + x129 + x130 + x131
           + x132  = 18
 N53:      x133 + x134 + x135 + x136 + x137 + x138 + x139 + x140 + x141 + x142
           + x143 + x144 + x145  = 18
 N54:      x146 + x147 + x148 + x149 + x150 + x151 + x152 + x153 + x154 + x155
           + x156 + x157 + x158  = 17.3101475400793
 N55:      x159 + x160 + x161 + x162 + x163 + x164 + x165 + x166 + x167 + x168
           + x169 + x170  = 25.9999966975717
 N56:      x171 + x172 + x173 + x174 + x175 + x176 + x177 + x178 + x179 + x180
            = 29.195648768493
 N57:      x181 + x182 + x183 + x184 + x185 + x186 + x187 + x188 + x189 + x190
           + x191 + x192  = 23.999994898899
 N58:      x193 + x194 + x195 + x196 + x197 + x198 + x199 + x200 + x201 + x202
           + x203 + x204  = 9.46861166400817
 N59:      x205 + x206 + x207 + x208 + x209 + x210 + x211 + x212 + x213 + x214
           + x215 + x216  = 30.0000446215034
 N60:      x217 + x218 + x219 + x220 + x221 + x222 + x223 + x224 + x225 + x226
           + x227  = 17.6168173829769
 N61:      x228 + x229 + x230 + x231 + x232 + x233 + x234 + x235 + x236 + x237
           + x238 + x239  = 21.4476403973303
 N62:      x240 + x241 + x242 + x243 + x244 + x245 + x246 + x247 + x248 + x249
           + x250 + x251 + x252  = 16
 N64:      x0 + x21 + x38 + x52 + x114 + x116 + x139 + x149 + x153 + x249 - y0
           - y1 - y2 - y3 - y4 - y5 - y6 - y7 - y8 - y9 - y10 - y11 - y12  = 0
 N65:      x1 + x34 + x54 + x65 + x71 + x96 + x101 + x110 + x125 + x128 + x150
           + x173 + x176 + x190 - y13 - y14 - y15 - y16 - y17 - y18 - y19 - y20
           - y21 - y22 - y23 - y24 - y25  = 0
 N66:      x2 + x22 + x26 + x46 + x151 + x162 + x186 + x192 + x214 + x242
           + x246 - y26 - y27 - y28 - y29 - y30 - y31 - y32 - y33 - y34 - y35
           - y36  = 0
 N67:      x3 + x24 + x27 + x57 + x77 + x85 + x158 + x166 + x170 + x184 + x219
           + x231 + x239 + x247 - y37 - y38 - y39 - y40 - y41 - y42 - y43 - y44
           - y45 - y46 - y47 - y48 - y49  = 0
 N68:      x4 + x63 + x68 + x107 + x174 + x196 + x198 + x227 - y50 - y51 - y52
           - y53 - y54 - y55 - y56 - y57 - y58 - y59 - y60  = 0
 N69:      x5 + x32 + x35 + x37 + x43 + x59 + x66 + x70 + x79 + x97 + x130
           + x131 + x222 + x226 - y61 - y62 - y63 - y64 - y65 - y66 - y67 - y68
           - y69 - y70 - y71 - y72 - y73  = 0
 N70:      x6 + x51 + x90 + x113 + x129 + x135 + x164 + x167 + x177 + x195
           + x202 + x238 - y74 - y75 - y76 - y77 - y78 - y79 - y80 - y81 - y82
           - y83 - y84  = 0
 N71:      x7 + x69 + x93 + x100 + x154 + x168 + x188 + x189 + x230 - y85 - y86
           - y87 - y88 - y89 - y90 - y91 - y92 - y93 - y94  = 0
 N72:      x8 + x23 + x80 + x82 + x104 + x112 + x152 + x179 + x204 + x244 - y95
           - y96 - y97 - y98 - y99 - y100 - y101 - y102 - y103 - y104 - y105
           - y106  = 0
 N73:      x9 + x28 + x36 + x42 + x47 + x50 + x103 + x105 + x115 + x120 + x123
           + x136 + x137 + x157 + x175 + x187 + x191 + x197 + x200 + x250
           - y107 - y108 - y109 - y110 - y111 - y112 - y113 - y114 - y115
           - y116 - y117 - y118  = 0
 N74:      x10 + x41 + x44 + x74 + x81 + x84 + x117 + x134 + x156 + x210 + x215
           + x221 - y119 - y120 - y121 - y122 - y123 - y124 - y125 - y126
           - y127 - y128 - y129  = 0
 N75:      x11 + x30 + x62 + x64 + x72 + x108 + x126 + x147 + x169 + x199
           + x207 + x211 + x225 - y130 - y131 - y132 - y133 - y134 - y135
           - y136 - y137 - y138 - y139 - y140 - y141 - y142  = 0
 N76:      x12 + x40 + x58 + x143 + x160 + x183 + x208 + x220 + x251 - y143
           - y144 - y145 - y146 - y147 - y148 - y149 - y150 - y151 - y152
           - y153 - y154  = 0
 N77:      x13 + x86 + x98 + x106 + x124 + x163 + x172 + x213 - y155 - y156
           - y157 - y158 - y159 - y160 - y161 - y162 - y163 - y164 - y165
           - y166 - y167  = 0
 N78:      x14 + x25 + x55 + x88 + x119 + x138 + x141 + x155 + x182 + x248
           - y168 - y169 - y170 - y171 - y172 - y173 - y174 - y175 - y176
           - y177 - y178 - y179  = 0
 N79:      x15 + x39 + x76 + x102 + x127 + x132 + x142 + x185 + x194 + x216
           + x235 + x236 + x252 - y180 - y181 - y182 - y183 - y184 - y185
           - y186 - y187 - y188 - y189 - y190  = 0
 N80:      x16 + x53 + x73 + x75 + x140 + x148 + x206 + x233 + x237 - y191
           - y192 - y193 - y194 - y195 - y196 - y197 - y198 - y199 - y200
           - y201 - y202 - y203  = 0
 N81:      x17 + x31 + x60 + x94 + x95 + x109 + x118 + x121 + x145 + x165
           + x203 + x218 + x245 - y204 - y205 - y206 - y207 - y208 - y209
           - y210 - y211 - y212 - y213  = 0
 N82:      x18 + x29 + x91 + x161 + x180 + x212 + x224 + x229 + x243 - y214
           - y215 - y216 - y217 - y218 - y219 - y220 - y221 - y222 - y223
           - y224  = 0
 N83:      x19 + x48 + x49 + x61 + x83 + x87 + x92 + x144 + x178 + x201 + x209
           + x223 + x232 + x234 + x241 - y225 - y226 - y227 - y228 - y229
           - y230 - y231 - y232 - y233 - y234 - y235 - y236 - y237  = 0
 Y2_1_0:   y0 <= 5
 Y2_1_1:   y1 <= 9
 Y2_1_2:   y2 <= 9
 Y2_1_3:   y3 <= 7
 Y2_1_4:   y4 <= 6
 Y2_1_5:   y5 <= 9
 Y2_1_6:   y6 <= 9
 Y2_1_7:   y7 <= 5
 Y2_1_8:   y8 <= 5
 Y2_1_9:   y9 <= 8
 Y2_1_10:  y10 <= 8
 Y2_1_11:  y11 <= 7
 Y2_1_12:  y12 <= 1000
 Y2_2_0:   y13 <= 7
 Y2_2_1:   y14 <= 9
 Y2_2_2:   y15 <= 8
 Y2_2_3:   y16 <= 6
 Y2_2_4:   y17 <= 9
 Y2_2_5:   y18 <= 5
 Y2_2_6:   y19 <= 7
 Y2_2_7:   y20 <= 7
 Y2_2_8:   y21 <= 5
 Y2_2_9:   y22 <= 7
 Y2_2_10:  y23 <= 7
 Y2_2_11:  y24 <= 5
 Y2_2_12:  y25 <= 1000
 Y2_3_0:   y26 <= 8
 Y2_3_1:   y27 <= 6
 Y2_3_2:   y28 <= 5
 Y2_3_3:   y29 <= 8
 Y2_3_4:   y30 <= 5
 Y2_3_5:   y31 <= 5
 Y2_3_6:   y32 <= 6
 Y2_3_7:   y33 <= 9
 Y2_3_8:   y34 <= 9
 Y2_3_9:   y35 <= 8
 Y2_3_10:  y36 <= 1000
 Y2_4_0:   y37 <= 8
 Y2_4_1:   y38 <= 7
 Y2_4_2:   y39 <= 9
 Y2_4_3:   y40 <= 6
 Y2_4_4:   y41 <= 7
 Y2_4_5:   y42 <= 7
 Y2_4_6:   y43 <= 6
 Y2_4_7:   y44 <= 5
 Y2_4_8:   y45 <= 9
 Y2_4_9:   y46 <= 6
 Y2_4_10:  y47 <= 5
 Y2_4_11:  y48 <= 7
 Y2_4_12:  y49 <= 1000
 Y2_5_0:   y50 <= 9
 Y2_5_1:   y51 <= 5
 Y2_5_2:   y52 <= 7
 Y2_5_3:   y53 <= 8
 Y2_5_4:   y54 <= 6
 Y2_5_5:   y55 <= 7
 Y2_5_6:   y56 <= 7
 Y2_5_7:   y57 <= 8
 Y2_5_8:   y58 <= 6
 Y2_5_9:   y59 <= 7
 Y2_5_10:  y60 <= 1000
 Y2_6_0:   y61 <= 6
 Y2_6_1:   y62 <= 5
 Y2_6_2:   y63 <= 8
 Y2_6_3:   y64 <= 9
 Y2_6_4:   y65 <= 5
 Y2_6_5:   y66 <= 5
 Y2_6_6:   y67 <= 5
 Y2_6_7:   y68 <= 7
 Y2_6_8:   y69 <= 8
 Y2_6_9:   y70 <= 9
 Y2_6_10:  y71 <= 8
 Y2_6_11:  y72 <= 8
 Y2_6_12:  y73 <= 1000
 Y2_7_0:   y74 <= 9
 Y2_7_1:   y75 <= 6
 Y2_7_2:   y76 <= 6
 Y2_7_3:   y77 <= 7
 Y2_7_4:   y78 <= 8
 Y2_7_5:   y79 <= 5
 Y2_7_6:   y80 <= 9
 Y2_7_7:   y81 <= 5
 Y2_7_8:   y82 <= 7
 Y2_7_9:   y83 <= 6
 Y2_7_10:  y84 <= 1000
 Y2_8_0:   y85 <= 9
 Y2_8_1:   y86 <= 6
 Y2_8_2:   y87 <= 7
 Y2_8_3:   y88 <= 6
 Y2_8_4:   y89 <= 5
 Y2_8_5:   y90 <= 5
 Y2_8_6:   y91 <= 9
 Y2_8_7:   y92 <= 7
 Y2_8_8:   y93 <= 8
 Y2_8_9:   y94 <= 1000
 Y2_9_0:   y95 <= 7
 Y2_9_1:   y96 <= 5
 Y2_9_2:   y97 <= 8
 Y2_9_3:   y98 <= 8
 Y2_9_4:   y99 <= 6
 Y2_9_5:   y100 <= 6
 Y2_9_6:   y101 <= 8
 Y2_9_7:   y102 <= 5
 Y2_9_8:   y103 <= 5
 Y2_9_9:   y104 <= 8
 Y2_9_10:  y105 <= 7
 Y2_9_11:  y106 <= 1000
 Y2_10_0:  y107 <= 7
 Y2_10_1:  y108 <= 8
 Y2_10_2:  y109 <= 6
 Y2_10_3:  y110 <= 7
 Y2_10_4:  y111 <= 7
 Y2_10_5:  y112 <= 9
 Y2_10_6:  y113 <= 5
 Y2_10_7:  y114 <= 8
 Y2_10_8:  y115 <= 5
 Y2_10_9:  y116 <= 8
 Y2_10_10: y117 <= 9
 Y2_10_11: y118 <= 1000
 Y2_11_0:  y119 <= 7
 Y2_11_1:  y120 <= 7
 Y2_11_2:  y121 <= 8
 Y2_11_3:  y122 <= 9
 Y2_11_4:  y123 <= 6
 Y2_11_5:  y124 <= 6
 Y2_11_6:  y125 <= 9
 Y2_11_7:  y126 <= 8
 Y2_11_8:  y127 <= 9
 Y2_11_9:  y128 <= 6
 Y2_11_10: y129 <= 1000
 Y2_12_0:  y130 <= 6
 Y2_12_1:  y131 <= 9
 Y2_12_2:  y132 <= 6
 Y2_12_3:  y133 <= 8
 Y2_12_4:  y134 <= 5
 Y2_12_5:  y135 <= 5
 Y2_12_6:  y136 <= 7
 Y2_12_7:  y137 <= 8
 Y2_12_8:  y138 <= 8
 Y2_12_9:  y139 <= 6
 Y2_12_10: y140 <= 9
 Y2_12_11: y141 <= 8
 Y2_12_12: y142 <= 1000
 Y2_13_0:  y143 <= 5
 Y2_13_1:  y144 <= 7
 Y2_13_2:  y145 <= 7
 Y2_13_3:  y146 <= 15
 Y2_13_4:  y147 <= 8
 Y2_13_5:  y148 <= 8
 Y2_13_6:  y149 <= 6
 Y2_13_7:  y150 <= 8
 Y2_13_8:  y151 <= 9
 Y2_13_9:  y152 <= 8
 Y2_13_10: y153 <= 9
 Y2_13_11: y154 <= 1000
 Y2_14_0:  y155 <= 8
 Y2_14_1:  y156 <= 6
 Y2_14_2:  y157 <= 8
 Y2_14_3:  y158 <= 5
 Y2_14_4:  y159 <= 6
 Y2_14_5:  y160 <= 6
 Y2_14_6:  y161 <= 8
 Y2_14_7:  y162 <= 6
 Y2_14_8:  y163 <= 5
 Y2_14_9:  y164 <= 7
 Y2_14_10: y165 <= 5
 Y2_14_11: y166 <= 6
 Y2_14_12: y167 <= 1000
 Y2_15_0:  y168 <= 9
 Y2_15_1:  y169 <= 8
 Y2_15_2:  y170 <= 8
 Y2_15_3:  y171 <= 5
 Y2_15_4:  y172 <= 7
 Y2_15_5:  y173 <= 6
 Y2_15_6:  y174 <= 9
 Y2_15_7:  y175 <= 6
 Y2_15_8:  y176 <= 5
 Y2_15_9:  y177 <= 5
 Y2_15_10: y178 <= 6
 Y2_15_11: y179 <= 1000
 Y2_16_0:  y180 <= 9
 Y2_16_1:  y181 <= 7
 Y2_16_2:  y182 <= 6
 Y2_16_3:  y183 <= 7
 Y2_16_4:  y184 <= 5
 Y2_16_5:  y185 <= 6
 Y2_16_6:  y186 <= 9
 Y2_16_7:  y187 <= 5
 Y2_16_8:  y188 <= 5
 Y2_16_9:  y189 <= 6
 Y2_16_10: y190 <= 1000
 Y2_17_0:  y191 <= 7
 Y2_17_1:  y192 <= 5
 Y2_17_2:  y193 <= 5
 Y2_17_3:  y194 <= 8
 Y2_17_4:  y195 <= 8
 Y2_17_5:  y196 <= 6
 Y2_17_6:  y197 <= 5
 Y2_17_7:  y198 <= 5
 Y2_17_8:  y199 <= 5
 Y2_17_9:  y200 <= 8
 Y2_17_10: y201 <= 9
 Y2_17_11: y202 <= 7
 Y2_17_12: y203 <= 1000
 Y2_18_0:  y204 <= 9
 Y2_18_1:  y205 <= 9
 Y2_18_2:  y206 <= 5
 Y2_18_3:  y207 <= 8
 Y2_18_4:  y208 <= 9
 Y2_18_5:  y209 <= 9
 Y2_18_6:  y210 <= 7
 Y2_18_7:  y211 <= 6
 Y2_18_8:  y212 <= 8
 Y2_18_9:  y213 <= 1000
 Y2_19_0:  y214 <= 5
 Y2_19_1:  y215 <= 7
 Y2_19_2:  y216 <= 8
 Y2_19_3:  y217 <= 6
 Y2_19_4:  y218 <= 7
 Y2_19_5:  y219 <= 6
 Y2_19_6:  y220 <= 7
 Y2_19_7:  y221 <= 5
 Y2_19_8:  y222 <= 8
 Y2_19_9:  y223 <= 5
 Y2_19_10: y224 <= 1000
 Y2_20_0:  y225 <= 7
 Y2_20_1:  y226 <= 9
 Y2_20_2:  y227 <= 9
 Y2_20_3:  y228 <= 6
 Y2_20_4:  y229 <= 6
 Y2_20_5:  y230 <= 6
 Y2_20_6:  y231 <= 6
 Y2_20_7:  y232 <= 7
 Y2_20_8:  y233 <= 8
 Y2_20_9:  y234 <= 5
 Y2_20_10: y235 <= 5
 Y2_20_11: y236 <= 9
 Y2_20_12: y237 <= 1000
Bounds
 0 <= x0 <= 1000
 0 <= x1 <= 1000
 0 <= x2 <= 1000
 0 <= x3 <= 1000
 0 <= x4 <= 1000
 0 <= x5 <= 1000
 0 <= x6 <= 1000
 0 <= x7 <= 1000
 0 <= x8 <= 1000
 0 <= x9 <= 1000
 0 <= x10 <= 1000
 0 <= x11 <= 1000
 0 <= x12 <= 1000
 0 <= x13 <= 1000
 0 <= x14 <= 1000
 0 <= x15 <= 1000
 0 <= x16 <= 1000
 0 <= x17 <= 1000
 0 <= x18 <= 1000
 0 <= x19 <= 1000
 0 <= x20 <= 1000
 0 <= x21 <= 5
 0 <= x22 <= 8
 0 <= x23 <= 9
 0 <= x24 <= 6
 0 <= x25 <= 7
 0 <= x26 <= 6
 0 <= x27 <= 6
 0 <= x28 <= 7
 0 <= x29 <= 9
 0 <= x30 <= 6
 0 <= x31 <= 7
 0 <= x32 <= 7
 0 <= x33 <= 1000
 0 <= x34 <= 8
 0 <= x35 <= 6
 0 <= x36 <= 7
 0 <= x37 <= 7
 0 <= x38 <= 5
 0 <= x39 <= 9
 0 <= x40 <= 7
 0 <= x41 <= 5
 0 <= x42 <= 6
 0 <= x43 <= 6
 0 <= x44 <= 6
 0 <= x45 <= 1000
 0 <= x46 <= 6
 0 <= x47 <= 6
 0 <= x48 <= 5
 0 <= x49 <= 6
 0 <= x50 <= 7
 0 <= x51 <= 5
 0 <= x52 <= 7
 0 <= x53 <= 5
 0 <= x54 <= 5
 0 <= x55 <= 6
 0 <= x56 <= 1000
 0 <= x57 <= 5
 0 <= x58 <= 6
 0 <= x59 <= 9
 0 <= x60 <= 5
 0 <= x61 <= 5
 0 <= x62 <= 7
 0 <= x63 <= 7
 0 <= x64 <= 9
 0 <= x65 <= 9
 0 <= x66 <= 8
 0 <= x67 <= 1000
 0 <= x68 <= 6
 0 <= x69 <= 8
 0 <= x70 <= 9
 0 <= x71 <= 5
 0 <= x72 <= 8
 0 <= x73 <= 9
 0 <= x74 <= 8
 0 <= x75 <= 7
 0 <= x76 <= 8
 0 <= x77 <= 7
 0 <= x78 <= 1000
 0 <= x79 <= 8
 0 <= x80 <= 6
 0 <= x81 <= 5
 0 <= x82 <= 8
 0 <= x83 <= 9
 0 <= x84 <= 8
 0 <= x85 <= 9
 0 <= x86 <= 5
 0 <= x87 <= 7
 0 <= x88 <= 9
 0 <= x89 <= 1000
 0 <= x90 <= 9
 0 <= x91 <= 7
 0 <= x92 <= 8
 0 <= x93 <= 5
 0 <= x94 <= 5
 0 <= x95 <= 8
 0 <= x96 <= 9
 0 <= x97 <= 9
 0 <= x98 <= 6
 0 <= x99 <= 1000
 0 <= x100 <= 7
 0 <= x101 <= 6
 0 <= x102 <= 7
 0 <= x103 <= 8
 0 <= x104 <= 7
 0 <= x105 <= 8
 0 <= x106 <= 6
 0 <= x107 <= 8
 0 <= x108 <= 8
 0 <= x109 <= 5
 0 <= x110 <= 5
 0 <= x111 <= 1000
 0 <= x112 <= 5
 0 <= x113 <= 5
 0 <= x114 <= 9
 0 <= x115 <= 5
 0 <= x116 <= 8
 0 <= x117 <= 8
 0 <= x118 <= 7
 0 <= x119 <= 9
 0 <= x120 <= 6
 0 <= x121 <= 5
 0 <= x122 <= 1000
 0 <= x123 <= 8
 0 <= x124 <= 8
 0 <= x125 <= 9
 0 <= x126 <= 9
 0 <= x127 <= 5
 0 <= x128 <= 5
 0 <= x129 <= 8
 0 <= x130 <= 6
 0 <= x131 <= 9
 0 <= x132 <= 5
 0 <= x133 <= 1000
 0 <= x134 <= 7
 0 <= x135 <= 9
 0 <= x136 <= 8
 0 <= x137 <= 5
 0 <= x138 <= 7
 0 <= x139 <= 6
 0 <= x140 <= 5
 0 <= x141 <= 6
 0 <= x142 <= 6
 0 <= x143 <= 9
 0 <= x144 <= 7
 0 <= x145 <= 9
 0 <= x146 <= 1000
 0 <= x147 <= 9
 0 <= x148 <= 8
 0 <= x149 <= 8
 0 <= x150 <= 7
 0 <= x151 <= 7
 0 <= x152 <= 8
 0 <= x153 <= 7
 0 <= x154 <= 9
 0 <= x155 <= 9
 0 <= x156 <= 5
 0 <= x157 <= 7
 0 <= x158 <= 9
 0 <= x159 <= 1000
 0 <= x160 <= 5
 0 <= x161 <= 7
 0 <= x162 <= 9
 0 <= x163 <= 9
 0 <= x164 <= 9
 0 <= x165 <= 5
 0 <= x166 <= 9
 0 <= x167 <= 7
 0 <= x168 <= 8
 0 <= x169 <= 6
 0 <= x170 <= 7
 0 <= x171 <= 1000
 0 <= x172 <= 6
 0 <= x173 <= 9
 0 <= x174 <= 9
 0 <= x175 <= 8
 0 <= x176 <= 5
 0 <= x177 <= 8
 0 <= x178 <= 6
 0 <= x179 <= 9
 0 <= x180 <= 6
 0 <= x181 <= 1000
 0 <= x182 <= 6
 0 <= x183 <= 6
 0 <= x184 <= 6
 0 <= x185 <= 7
 0 <= x186 <= 9
 0 <= x187 <= 7
 0 <= x188 <= 9
 0 <= x189 <= 5
 0 <= x190 <= 6
 0 <= x191 <= 7
 0 <= x192 <= 7
 0 <= x193 <= 1000
 0 <= x194 <= 7
 0 <= x195 <= 5
 0 <= x196 <= 6
 0 <= x197 <= 5
 0 <= x198 <= 7
 0 <= x199 <= 9
 0 <= x200 <= 8
 0 <= x201 <= 7
 0 <= x202 <= 5
 0 <= x203 <= 8
 0 <= x204 <= 7
 0 <= x205 <= 1000
 0 <= x206 <= 7
 0 <= x207 <= 6
 0 <= x208 <= 6
 0 <= x209 <= 9
 0 <= x210 <= 6
 0 <= x211 <= 8
 0 <= x212 <= 9
 0 <= x213 <= 9
 0 <= x214 <= 8
 0 <= x215 <= 5
 0 <= x216 <= 6
 0 <= x217 <= 1000
 0 <= x218 <= 8
 0 <= x219 <= 8
 0 <= x220 <= 5
 0 <= x221 <= 6
 0 <= x222 <= 8
 0 <= x223 <= 7
 0 <= x224 <= 8
 0 <= x225 <= 5
 0 <= x226 <= 5
 0 <= x227 <= 6
 0 <= x228 <= 1000
 0 <= x229 <= 6
 0 <= x230 <= 6
 0 <= x231 <= 6
 0 <= x232 <= 8
 0 <= x233 <= 6
 0 <= x234 <= 9
 0 <= x235 <= 5
 0 <= x236 <= 7
 0 <= x237 <= 5
 0 <= x238 <= 7
 0 <= x239 <= 6
 0 <= x240 <= 1000
 0 <= x241 <= 8
 0 <= x242 <= 8
 0 <= x243 <= 7
 0 <= x244 <= 7
 0 <= x245 <= 9
 0 <= x246 <= 7
 0 <= x247 <= 8
 0 <= x248 <= 6
 0 <= x249 <= 8
 0 <= x250 <= 8
 0 <= x251 <= 8
 0 <= x252 <= 5
 0 <= y0 <= 1001
 0 <= y1 <= 1001
 0 <= y2 <= 1001
 0 <= y3 <= 1001
 0 <= y4 <= 1001
 0 <= y5 <= 1001
 0 <= y6 <= 1001
 0 <= y7 <= 1001
 0 <= y8 <= 1001
 0 <= y9 <= 1001
 0 <= y10 <= 1001
 0 <= y11 <= 1001
 0 <= y12 <= 1001
 0 <= y13 <= 1001
 0 <= y14 <= 1001
 0 <= y15 <= 1001
 0 <= y16 <= 1001
 0 <= y17 <= 1001
 0 <= y18 <= 1001
 0 <= y19 <= 1001
 0 <= y20 <= 1001
 0 <= y21 <= 1001
 0 <= y22 <= 1001
 0 <= y23 <= 1001
 0 <= y24 <= 1001
 0 <= y25 <= 1001
 0 <= y26 <= 1001
 0 <= y27 <= 1001
 0 <= y28 <= 1001
 0 <= y29 <= 1001
 0 <= y30 <= 1001
 0 <= y31 <= 1001
 0 <= y32 <= 1001
 0 <= y33 <= 1001
 0 <= y34 <= 1001
 0 <= y35 <= 1001
 0 <= y36 <= 1001
 0 <= y37 <= 1001
 0 <= y38 <= 1001
 0 <= y39 <= 1001
 0 <= y40 <= 1001
 0 <= y41 <= 1001
 0 <= y42 <= 1001
 0 <= y43 <= 1001
 0 <= y44 <= 1001
 0 <= y45 <= 1001
 0 <= y46 <= 1001
 0 <= y47 <= 1001
 0 <= y48 <= 1001
 0 <= y49 <= 1001
 0 <= y50 <= 1001
 0 <= y51 <= 1001
 0 <= y52 <= 1001
 0 <= y53 <= 1001
 0 <= y54 <= 1001
 0 <= y55 <= 1001
 0 <= y56 <= 1001
 0 <= y57 <= 1001
 0 <= y58 <= 1001
 0 <= y59 <= 1001
 0 <= y60 <= 1001
 0 <= y61 <= 1001
 0 <= y62 <= 1001
 0 <= y63 <= 1001
 0 <= y64 <= 1001
 0 <= y65 <= 1001
 0 <= y66 <= 1001
 0 <= y67 <= 1001
 0 <= y68 <= 1001
 0 <= y69 <= 1001
 0 <= y70 <= 1001
 0 <= y71 <= 1001
 0 <= y72 <= 1001
 0 <= y73 <= 1001
 0 <= y74 <= 1001
 0 <= y75 <= 1001
 0 <= y76 <= 1001
 0 <= y77 <= 1001
 0 <= y78 <= 1001
 0 <= y79 <= 1001
 0 <= y80 <= 1001
 0 <= y81 <= 1001
 0 <= y82 <= 1001
 0 <= y83 <= 1001
 0 <= y84 <= 1001
 0 <= y85 <= 1001
 0 <= y86 <= 1001
 0 <= y87 <= 1001
 0 <= y88 <= 1001
 0 <= y89 <= 1001
 0 <= y90 <= 1001
 0 <= y91 <= 1001
 0 <= y92 <= 1001
 0 <= y93 <= 1001
 0 <= y94 <= 1001
 0 <= y95 <= 1001
 0 <= y96 <= 1001
 0 <= y97 <= 1001
 0 <= y98 <= 1001
 0 <= y99 <= 1001
 0 <= y100 <= 1001
 0 <= y101 <= 1001
 0 <= y102 <= 1001
 0 <= y103 <= 1001
 0 <= y104 <= 1001
 0 <= y105 <= 1001
 0 <= y106 <= 1001
 0 <= y107 <= 1001
 0 <= y108 <= 1001
 0 <= y109 <= 1001
 0 <= y110 <= 1001
 0 <= y111 <= 1001
 0 <= y112 <= 1001
 0 <= y113 <= 1001
 0 <= y114 <= 1001
 0 <= y115 <= 1001
 0 <= y116 <= 1001
 0 <= y117 <= 1001
 0 <= y118 <= 1001
 0 <= y119 <= 1001
 0 <= y120 <= 1001
 0 <= y121 <= 1001
 0 <= y122 <= 1001
 0 <= y123 <= 1001
 0 <= y124 <= 1001
 0 <= y125 <= 1001
 0 <= y126 <= 1001
 0 <= y127 <= 1001
 0 <= y128 <= 1001
 0 <= y129 <= 1001
 0 <= y130 <= 1001
 0 <= y131 <= 1001
 0 <= y132 <= 1001
 0 <= y133 <= 1001
 0 <= y134 <= 1001
 0 <= y135 <= 1001
 0 <= y136 <= 1001
 0 <= y137 <= 1001
 0 <= y138 <= 1001
 0 <= y139 <= 1001
 0 <= y140 <= 1001
 0 <= y141 <= 1001
 0 <= y142 <= 1001
 0 <= y143 <= 1001
 0 <= y144 <= 1001
 0 <= y145 <= 1001
 0 <= y146 <= 1001
 0 <= y147 <= 1001
 0 <= y148 <= 1001
 0 <= y149 <= 1001
 0 <= y150 <= 1001
 0 <= y151 <= 1001
 0 <= y152 <= 1001
 0 <= y153 <= 1001
 0 <= y154 <= 1001
 0 <= y155 <= 1001
 0 <= y156 <= 1001
 0 <= y157 <= 1001
 0 <= y158 <= 1001
 0 <= y159 <= 1001
 0 <= y160 <= 1001
 0 <= y161 <= 1001
 0 <= y162 <= 1001
 0 <= y163 <= 1001
 0 <= y164 <= 1001
 0 <= y165 <= 1001
 0 <= y166 <= 1001
 0 <= y167 <= 1001
 0 <= y168 <= 1001
 0 <= y169 <= 1001
 0 <= y170 <= 1001
 0 <= y171 <= 1001
 0 <= y172 <= 1001
 0 <= y173 <= 1001
 0 <= y174 <= 1001
 0 <= y175 <= 1001
 0 <= y176 <= 1001
 0 <= y177 <= 1001
 0 <= y178 <= 1001
 0 <= y179 <= 1001
 0 <= y180 <= 1001
 0 <= y181 <= 1001
 0 <= y182 <= 1001
 0 <= y183 <= 1001
 0 <= y184 <= 1001
 0 <= y185 <= 1001
 0 <= y186 <= 1001
 0 <= y187 <= 1001
 0 <= y188 <= 1001
 0 <= y189 <= 1001
 0 <= y190 <= 1001
 0 <= y191 <= 1001
 0 <= y192 <= 1001
 0 <= y193 <= 1001
 0 <= y194 <= 1001
 0 <= y195 <= 1001
 0 <= y196 <= 1001
 0 <= y197 <= 1001
 0 <= y198 <= 1001
 0 <= y199 <= 1001
 0 <= y200 <= 1001
 0 <= y201 <= 1001
 0 <= y202 <= 1001
 0 <= y203 <= 1001
 0 <= y204 <= 1001
 0 <= y205 <= 1001
 0 <= y206 <= 1001
 0 <= y207 <= 1001
 0 <= y208 <= 1001
 0 <= y209 <= 1001
 0 <= y210 <= 1001
 0 <= y211 <= 1001
 0 <= y212 <= 1001
 0 <= y213 <= 1001
 0 <= y214 <= 1001
 0 <= y215 <= 1001
 0 <= y216 <= 1001
 0 <= y217 <= 1001
 0 <= y218 <= 1001
 0 <= y219 <= 1001
 0 <= y220 <= 1001
 0 <= y221 <= 1001
 0 <= y222 <= 1001
 0 <= y223 <= 1001
 0 <= y224 <= 1001
 0 <= y225 <= 1001
 0 <= y226 <= 1001
 0 <= y227 <= 1001
 0 <= y228 <= 1001
 0 <= y229 <= 1001
 0 <= y230 <= 1001
 0 <= y231 <= 1001
 0 <= y232 <= 1001
 0 <= y233 <= 1001
 0 <= y234 <= 1001
 0 <= y235 <= 1001
 0 <= y236 <= 1001
 0 <= y237 <= 1001
End
